unsat
(:SPACER-conj                         2
 :SPACER-expand-pob-undef             11
 :SPACER-inductive-gen                113
 :SPACER-inductive-gen-weaken-fail    249
 :SPACER-inductive-gen-weaken-success 25
 :SPACER-inductive-level              6
 :SPACER-max-depth                    10
 :SPACER-max-query-lvl                10
 :SPACER-non-local-gen                13
 :SPACER-num-active-lemmas            39
 :SPACER-num-ctp-blocked              100
 :SPACER-num-invariants               60
 :SPACER-num-is_invariant             448
 :SPACER-num-lemma-jumped             12
 :SPACER-num-lemmas                   134
 :SPACER-num-pobs                     78
 :SPACER-num-propagations             233
 :SPACER-num-queries                  98
 :SPACER-num-reach-queries            7
 :SPACER-num-reuse-reach-facts        7
 :SPACER-subsume-failed               7
 :SPACER-subsume-pob                  21
 :SPACER-subsume-success              30
 :added-eqs                           44984
 :arith-assert-diseq                  33992
 :arith-assert-lower                  80992
 :arith-assert-upper                  73504
 :arith-bound-prop                    4174
 :arith-branch-var                    14
 :arith-conflicts                     242
 :arith-eq-adapter                    6230
 :arith-fixed-eqs                     15828
 :arith-gcd-conflicts                 10
 :arith-gcd-tests                     436
 :arith-gomory-cuts                   6
 :arith-ineq-splits                   14
 :arith-num-rows                      126
 :arith-offset-eqs                    6888
 :arith-patches                       32
 :arith-patches_succ                  12
 :arith-pivots                        3760
 :arith-row-summations                42958
 :arith-tableau-max-columns           228
 :arith-tableau-max-rows              126
 :conflicts                           2470
 :decisions                           232792
 :del-clause                          5992
 :final-checks                        1098
 :iuc_solver.num_proxies              542
 :max-memory                          41.34
 :memory                              40.03
 :minimized-lits                      580
 :mk-bool-var                         10360
 :mk-clause                           13434
 :num-allocs                          1091749545
 :num-checks                          2586
 :pool_solver.checks                  1293
 :pool_solver.checks.sat              463
 :pool_solver.checks.undef            71
 :propagations                        456388
 :rlimit-count                        2742221
 :time                                1.56
 :time.iuc_solver.get_iuc             0.17
 :time.iuc_solver.get_iuc.hyp_reduce1 0.07
 :time.iuc_solver.get_iuc.hyp_reduce2 0.10
 :time.iuc_solver.get_iuc.learn_core  0.03
 :time.pool_solver.proof              0.03
 :time.pool_solver.smt.total          0.80
 :time.pool_solver.smt.total.sat      0.42
 :time.pool_solver.smt.total.undef    0.07
 :time.spacer.ctp                     0.02
 :time.spacer.init_rules              0.00
 :time.spacer.mbp                     0.02
 :time.spacer.solve                   1.52
 :time.spacer.solve.propagate         0.26
 :time.spacer.solve.reach             1.26
 :time.spacer.solve.reach.children    0.05
 :time.spacer.solve.reach.cluster     0.18
 :time.spacer.solve.reach.gen.global  0.14
 :time.spacer.solve.reach.gen.ind     0.40
 :time.spacer.solve.reach.is-reach    0.00)
(:max-memory   41.34
 :memory       40.03
 :num-allocs   1091749545
 :rlimit-count 2742221
 :time         1.56
 :total-time   1.58)
